N=15;%number of vessels
L=1000;%quay length
s=4;%max shift time
d=10;%minimum safety distance
C=10;%number of cranes
r=390;%crane range
qcbasepositions = array1d([30,90,150,210,270,330,390,450,510,580]);
lengths = array1d([200,70,70,141,89,118,80,152,141,76,200,70,70,141,89]);
arrivaltimes = array1d([30,137,82,113,103,59,66,20,7,33,30,137,82,113,103]);
departuretimes = array1d([54,161,130,133,127,91,90,56,43,57,54,161,130,133,12]);
minimumnumqcs = array1d([1,1,1,1,1,1,1,1,1,1,1,1,1,1,1]);
